43
357

[0.57 3.02 0.66 1.19 1.62 4.26 3.3 2.68 0.14 3.64 1.96 3.98 1.26 0.28 4.3 1.1 2.01 1.57 0.38 4.18 4.21 4.82 1.91 4.73 2.21 3.32 0.41 4.45 1.48 1.3 0.03 2.69 2.36 3.16 4.85 4.51 4.51 2.6 0.52 0.9 4.73 2.04 4.29 3.33 3.12 1.37 4.45 1.03 2.01 4.93 3.65 2.21 2.78 2.04 3.6 1.98 3.32 3.49 3.02 2.68 1.02 0.99 3.95 1.44 3.25 1.49 0.72 2.0 1.54 1.21 2.92 1.22]

[58 35 35 51 73 49 30 85 39 82 92 58 4 58 90 76 8 95 57 67 18 96 70 28 55 24 95 11 95 24 3 77 68 51 23 63 96 27 29 62 100 6 42 88 27 25 21 85 83 58 19 71 33 69 78 80 68 71 46 37 52 54 98 9 74 65 100 40 59 56 20 38]
